Version identifier: 22.1.1.0 | 2022-11-28 | 9160aff4d
CPXPARAM_ClockType                               1
CPXPARAM_Read_DataCheck                          1
CPXPARAM_Threads                                 1
CPXPARAM_TimeLimit                               7200
CPXPARAM_MIP_Tolerances_AbsMIPGap                0
CPXPARAM_MIP_Tolerances_MIPGap                   0
CPXPARAM_MIP_Tolerances_Integrality              0
Tried aggregator 2 times.
MIP Presolve eliminated 814 rows and 0 columns.
MIP Presolve modified 1460 coefficients.
Aggregator did 600 substitutions.
Reduced MIP has 2320 rows, 1500 columns, and 6000 nonzeros.
Reduced MIP has 1500 binaries, 0 generals, 0 SOSs, and 0 indicators.
Presolve time = 0.01 sec. (9.17 ticks)
Probing time = 0.01 sec. (2.22 ticks)
Tried aggregator 1 time.
Detecting symmetries...
MIP Presolve eliminated 200 rows and 0 columns.
Reduced MIP has 2120 rows, 1500 columns, and 5400 nonzeros.
Reduced MIP has 1500 binaries, 0 generals, 0 SOSs, and 0 indicators.
Presolve time = 0.01 sec. (6.56 ticks)
Probing time = 0.01 sec. (2.11 ticks)
Clique table members: 4120.
MIP emphasis: balance optimality and feasibility.
MIP search method: dynamic search.
Parallel mode: none, using 1 thread.
Root relaxation solution time = 0.05 sec. (36.84 ticks)

        Nodes                                         Cuts/
   Node  Left     Objective  IInf  Best Integer    Best Bound    ItCnt     Gap

      0     0      200.0000   538                    200.0000      963         
      0     0      200.0000   601                   Cuts: 119     1224         
      0     0      200.0000   521                 ZeroHalf: 6     1236         
      0     0      200.0000   578               ZeroHalf: 175     1407         
*     0+    0                            0.0000      200.0000              --- 
*     0+    0                            6.0000      200.0000              --- 
      0     0        cutoff              6.0000      200.0000     1407     --- 
      0     2      200.0000   675        6.0000      200.0000     1677     --- 
Elapsed time = 0.84 sec. (596.11 ticks, tree = 0.01 MB, solutions = 2)
     14     6      200.0000   504        6.0000      200.0000     5096     --- 
     27     9    infeasible              6.0000      200.0000     8508     --- 
     34     6    infeasible              6.0000      200.0000    12106     --- 
     44     6    infeasible              6.0000      200.0000    16391     --- 
     51     9      200.0000   553        6.0000      200.0000    19459     --- 
     59     9    infeasible              6.0000      200.0000    23450     --- 
     73    15      198.0000   488        6.0000      200.0000    26666     --- 
     87    16      200.0000   600        6.0000      200.0000    30461     --- 
    119    22      200.0000   482        6.0000      200.0000    35575     --- 
*   149     1      integral     0      200.0000      200.0000    42476    0.00%

Zero-half cuts applied:  57

Root node processing (before b&c):
  Real time             =    0.84 sec. (596.07 ticks)
Sequential b&c:
  Real time             =    3.29 sec. (2607.97 ticks)
                          ------------
Total (root+branch&cut) =    4.13 sec. (3204.04 ticks)
Solution is feasible.

---------------------
@@@ MIP_optimal
>>> Benchmark flat100-7.cnf k 2 OPT 200 TimeCost 4.379435300827026 TimeSolve 4.150074243545532 TimeRead 0.0033173561096191406 TimeTrans 0.226043701171875
